
Gurobi 11.0.0 (linux64) logging started Wed Aug 14 22:52:51 2024

Set parameter LogFile to value "gurobi.log"
Set parameter InfUnbdInfo to value 1
Gurobi Optimizer version 11.0.0 build v11.0.0rc2 (linux64 - "Ubuntu 22.04.4 LTS")

CPU model: AMD EPYC 7V13 64-Core Processor, instruction set [SSE2|AVX|AVX2]
Thread count: 128 physical cores, 128 logical processors, using up to 32 threads

Optimize a model with 50 rows, 147 columns and 148 nonzeros
Model fingerprint: 0x30526ede
Model has 92 quadratic constraints
Model has 2 general constraints
Variable types: 33 continuous, 114 integer (0 binary)
Coefficient statistics:
  Matrix range     [1e+00, 2e+05]
  QMatrix range    [1e+00, 2e+05]
  QLMatrix range   [1e+00, 3e+05]
  Objective range  [1e+00, 1e+00]
  Bounds range     [1e+00, 3e+10]
  RHS range        [1e+00, 7e+03]
  QRHS range       [1e+00, 2e+06]
Warning: Model contains large bounds
         Consider reformulating model or setting NumericFocus parameter
         to avoid numerical issues.
Using branch priorities (all 0).
Presolve added 28 rows and 76 columns
Presolve time: 0.00s
Presolved: 384 rows, 298 columns, 2115 nonzeros
Presolved model has 46 SOS constraint(s)
Presolved model has 59 bilinear constraint(s)
Warning: Model contains variables with very large bounds participating
         in product terms.
         Presolve was not able to compute smaller bounds for these variables.
         Consider bounding these variables or reformulating the model.


Solving non-convex MIQCP

Variable types: 120 continuous, 178 integer (58 binary)

Root relaxation: objective 1.024250e+03, 157 iterations, 0.00 seconds (0.00 work units)

    Nodes    |    Current Node    |     Objective Bounds      |     Work
 Expl Unexpl |  Obj  Depth IntInf | Incumbent    BestBd   Gap | It/Node Time

     0     0 1024.25000    0   96          - 1024.25000      -     -    0s
     0     0 1026.25031    0   89          - 1026.25031      -     -    0s
     0     0 1026.25031    0   92          - 1026.25031      -     -    0s
     0     0 1026.25031    0   93          - 1026.25031      -     -    0s
H    0     0                    1.280044e+10 1026.25031   100%     -    0s
     0     0 1435.84059    0  132 1.2800e+10 1435.84059   100%     -    0s
     0     0 1435.84059    0  132 1.2800e+10 1435.84059   100%     -    0s
H    0     0                    6.400529e+09 1488.42059   100%     -    0s
     0     0 1488.42059    0  133 6.4005e+09 1488.42059   100%     -    0s
     0     0 1847.19059    0  133 6.4005e+09 1847.19059   100%     -    0s
     0     0 1847.19059    0  137 6.4005e+09 1847.19059   100%     -    0s
     0     0 1849.04363    0  151 6.4005e+09 1849.04363   100%     -    0s
     0     0 1855.85787    0  150 6.4005e+09 1855.85787   100%     -    0s
H    0     0                    361000.00000 1862.30780  99.5%     -    0s
     0     0 1862.30780    0  156 361000.000 1862.30780  99.5%     -    0s
     0     0 1868.89367    0  186 361000.000 1868.89367  99.5%     -    0s
     0     0 1875.70116    0  187 361000.000 1875.70116  99.5%     -    0s
     0     0 1906.11706    0  197 361000.000 1906.11706  99.5%     -    0s
     0     0 2028.52134    0  201 361000.000 2028.52134  99.4%     -    0s
     0     0 2028.52134    0  200 361000.000 2028.52134  99.4%     -    0s
     0     0 2028.52134    0  200 361000.000 2028.52134  99.4%     -    0s
     0     0 2607.84843    0  192 361000.000 2607.84843  99.3%     -    0s
     0     0 2609.57916    0  164 361000.000 2609.57916  99.3%     -    0s
     0     0 2657.98397    0  183 361000.000 2657.98397  99.3%     -    0s
     0     0 3058.32417    0  187 361000.000 3058.32417  99.2%     -    0s
     0     0 4682.07519    0  194 361000.000 4682.07519  98.7%     -    0s
     0     0 6647.04384    0  194 361000.000 6647.04384  98.2%     -    0s
     0     0 9134.95797    0  113 361000.000 9134.95797  97.5%     -    0s
H    0     0                    359400.00000 9134.95797  97.5%     -    0s
H    0     0                    359050.00000 9134.95797  97.5%     -    0s
H    0     0                    119050.00000 9134.95797  92.3%     -    0s
H    0     1                    107700.00000 9134.95797  91.5%     -    0s
     0     1 9134.95797    0  113 107700.000 9134.95797  91.5%     -    0s
H   32    54                    104700.00000 20306.0212  80.6%  18.1    0s
H   40    54                    104550.00000 20306.0212  80.6%  16.3    0s
H   42    54                    96931.999997 20306.0212  79.1%  16.3    0s
H   46    54                    84369.951478 20306.0212  75.9%  16.7    0s
H   55    54                    54247.574078 20311.3652  62.6%  14.8    0s
H   93    70                    29479.928095 20311.3652  31.1%  11.0    0s
*  447   345              16    21950.365592 20311.3652  7.47%   6.1    1s
H  715   333                    21686.742197 20325.0990  6.28%   5.2    1s
*  902   347              25    21562.208268 20326.2939  5.73%   5.0    1s
H 1423   305                    21555.213775 20347.2413  5.60%   5.4    1s
H 1790   304                    21548.819528 20347.2413  5.58%   5.8    1s
* 2180   242              31    21521.614021 20462.0956  4.92%   5.8    1s
* 2649    39              30    21439.997500 20851.3459  2.75%   5.9    1s

Cutting planes:
  Learned: 4
  Gomory: 5
  Implied bound: 49
  MIR: 34
  StrongCG: 1
  Inf proof: 3
  RLT: 44
  Relax-and-lift: 6

Explored 2821 nodes (16714 simplex iterations) in 1.71 seconds (0.17 work units)
Thread count was 32 (of 128 available processors)

Solution count 10: 21440 21521.6 21548.8 ... 84370

Optimal solution found (tolerance 1.00e-10)
Warning: max constraint violation (2.9504e-03) exceeds tolerance
Warning: max general constraint violation (2.9504e-03) exceeds tolerance
  Piecewise linearization of function constraints often causes big violation.
  Try to adjust the settings of the related parameters, such as FuncPieces.
Best objective 2.143999750006e+04, best bound 2.143999750006e+04, gap 0.0000%
